(declare-sort sk_a 0)
(declare-datatypes ()
  ((list2 (nil2) (cons2 (head2 sk_a) (tail2 list2)))))
(declare-datatypes ()
  ((Tree (Node (Node_0 Tree) (Node_1 sk_a) (Node_2 Tree)) (Nil))))
(declare-datatypes ()
  ((list (nil) (cons (head Tree) (tail list)))))
(declare-fun flatten1 (list) list2)
(declare-fun append (list2 list2) list2)
(declare-fun flatten0 (Tree) list2)
(assert
  (not (forall ((p Tree)) (= (flatten1 (cons p nil)) (flatten0 p)))))
(assert
  (forall ((x list))
    (= (flatten1 x)
      (ite
        (is-cons x)
        (ite
          (is-Nil (head x)) (flatten1 (tail x))
          (ite
            (is-Nil (Node_0 (head x)))
            (cons2 (Node_1 (head x))
              (flatten1 (cons (Node_2 (head x)) (tail x))))
            (flatten1
              (cons
                (Node (Node_0 (Node_0 (head x)))
                  (Node_1 (Node_0 (head x))) (Node_2 (Node_0 (head x))))
                (cons (Node Nil (Node_1 (head x)) (Node_2 (head x))) (tail x))))))
        nil2))))
(assert
  (forall ((x list2) (y list2))
    (= (append x y)
      (ite (is-cons2 x) (cons2 (head2 x) (append (tail2 x) y)) y))))
(assert
  (forall ((x Tree))
    (= (flatten0 x)
      (ite
        (is-Nil x) nil2
        (append (append (flatten0 (Node_0 x)) (cons2 (Node_1 x) nil2))
          (flatten0 (Node_2 x)))))))
(check-sat)
